(set-logic ALL)
(declare-fun var0 () String)
(assert (str.in_re var0 (re.++ (re.+ (re.* (str.to_re "000"))) (re.++ (re.+ (re.* (str.to_re "1"))) (re.++ (re.* (re.union (str.to_re "22") (str.to_re "3"))) (re.++ (re.union (re.union (str.to_re "44") (str.to_re "55")) (re.union (str.to_re "66") (str.to_re "777"))) (re.++ (re.union (re.+ (str.to_re "88")) (re.+ (str.to_re "99"))) (re.++ (re.+ (re.* (str.to_re "aaa"))) (re.++ (re.+ (re.* (str.to_re "bbb"))) (re.++ (re.union (re.+ (str.to_re "ccc")) (re.+ (str.to_re "ddd"))) (re.++ (re.+ (re.union (str.to_re "eee") (str.to_re "f"))) (re.++ (re.union (re.* (str.to_re "g")) (re.* (str.to_re "hh"))) (re.++ (re.* (re.+ (str.to_re "iii"))) (re.++ (re.* (re.+ (str.to_re "jjj"))) (re.++ (re.union (re.+ (str.to_re "kkk")) (re.+ (str.to_re "ll"))) (re.++ (re.union (re.* (str.to_re "m")) (re.* (str.to_re "nn"))) (re.++ (re.union (re.+ (str.to_re "ooo")) (re.+ (str.to_re "pp"))) (re.++ (re.+ (re.union (str.to_re "qq") (str.to_re "rrr"))) (re.++ (re.+ (re.* (str.to_re "s"))) (re.++ (re.* (re.+ (str.to_re "t"))) (re.++ (re.+ (re.+ (str.to_re "uu"))) (re.++ (re.union (re.* (str.to_re "v")) (re.* (str.to_re "www"))) (re.++ (re.* (re.+ (str.to_re "xx"))) (re.++ (re.* (re.+ (str.to_re "yyy"))) (re.++ (re.union (re.* (str.to_re "zz")) (re.* (str.to_re "A"))) (re.++ (re.* (re.* (str.to_re "BB"))) (re.++ (re.+ (re.* (str.to_re "C"))) (re.++ (re.union (re.* (str.to_re "D")) (re.* (str.to_re "EE"))) (re.++ (re.union (re.* (str.to_re "FF")) (re.* (str.to_re "GG"))) (re.++ (re.union (re.union (str.to_re "HH") (str.to_re "II")) (re.union (str.to_re "JJ") (str.to_re "K"))) (re.++ (re.union (re.union (str.to_re "L") (str.to_re "M")) (re.union (str.to_re "NNN") (str.to_re "O"))) (re.++ (re.+ (re.+ (str.to_re "PPP"))) (re.++ (re.* (re.* (str.to_re "QQQ"))) (re.++ (re.union (re.* (str.to_re "RR")) (re.* (str.to_re "S"))) (re.++ (re.* (re.* (str.to_re "TT"))) (re.++ (re.+ (re.union (str.to_re "UU") (str.to_re "VVV"))) (re.++ (re.+ (re.+ (str.to_re "W"))) (re.++ (re.+ (re.+ (str.to_re "XXX"))) (re.++ (re.union (re.+ (str.to_re "Y")) (re.+ (str.to_re "ZZ"))) (re.++ (re.+ (re.union (str.to_re "!!") (str.to_re """"""))) (re.++ (re.+ (re.union (str.to_re "##") (str.to_re "$$$"))) (re.++ (re.* (re.+ (str.to_re "%"))) (re.++ (re.* (re.+ (str.to_re "&&&"))) (re.++ (re.+ (re.+ (str.to_re "'''"))) (re.++ (re.* (re.union (str.to_re "((") (str.to_re "))"))) (re.++ (re.+ (re.+ (str.to_re "***"))) (re.++ (re.union (re.union (str.to_re "+") (str.to_re ",,,")) (re.union (str.to_re "-") (str.to_re ".."))) (re.++ (re.union (re.+ (str.to_re "/")) (re.+ (str.to_re ":::"))) (re.union (re.union (str.to_re ";;;") (str.to_re "<<<")) (re.union (str.to_re "=") (str.to_re ">>")))))))))))))))))))))))))))))))))))))))))))))))))))
(check-sat)